words_hard_train/9451.qaiger
aag 122 24 0 1 98
2
4
8
12
16
20
28
30
34
42
48
56
62
70
76
84
90
98
110
118
126
210
214
222
244
6 3 5
10 6 9
14 10 13
18 14 17
22 19 20
24 18 21
26 23 25
32 29 30
36 31 35
38 30 34
40 37 39
44 41 43
46 32 44
50 39 49
52 38 48
54 51 53
58 55 57
60 46 58
64 53 63
66 52 62
68 65 67
72 69 71
74 60 72
78 67 77
80 66 76
82 79 81
86 83 85
88 74 86
92 81 91
94 80 90
96 93 95
100 97 99
102 89 101
104 88 100
106 103 105
108 27 107
112 25 110
114 24 111
116 113 115
120 95 119
122 94 118
124 121 123
128 125 127
130 105 129
132 104 128
134 131 133
136 117 135
138 109 137
140 11 12
142 141 15
144 61 73
146 145 75
148 142 146
150 7 8
152 151 11
154 47 59
156 155 61
158 152 156
160 149 159
162 32 3
164 163 4
166 164 45
168 167 47
170 168 7
172 59 8
174 170 173
176 160 175
178 143 147
180 177 179
182 15 16
184 183 19
186 75 87
188 187 89
190 185 189
192 180 191
194 184 188
196 193 195
198 26 106
200 196 199
202 138 201
204 116 134
206 203 205
208 206 133
212 122 211
216 213 215
218 123 210
220 216 219
224 114 223
226 115 222
228 225 227
230 221 229
232 208 231
234 207 132
236 230 234
238 233 237
240 220 235
242 240 228
244 238 243
i0 2 y1[0]
i1 2 y1[1]
i2 2 y1[2]
i3 2 y1[3]
i4 2 y1[4]
i5 2 y1[5]
i6 1 x2[0]
i7 1 x1[0]
i8 1 x1[1]
i9 1 x2[1]
i10 1 x1[2]
i11 1 x2[2]
i12 1 x1[3]
i13 1 x2[3]
i14 1 x1[4]
i15 1 x2[4]
i16 1 x1[5]
i17 1 x2[5]
i18 2 y1[6]
i19 1 x1[6]
i20 1 x2[6]
i21 1 x1[7]
i22 1 x2[7]
i23 2 y1[7]
o0 bv[0]
c
simplified
  >=
    unary minus
      2 y1
    or
      1 x2
      add
        1 x1
        1
