words_hard_train/9451.qaiger.qdimacs
p cnf 122 295
a 35 38 105 42 107 45 14 15 17 49 21 24 59 28 63 31 0
e 1 2 3 4 5 6 7 8 9 10 11 12 13 16 18 19 20 22 23 25 26 27 29 30 32 33 34 36 37 39 40 41 43 44 46 47 48 50 51 52 53 54 55 56 57 58 60 61 62 64 65 66 67 68 69 70 71 72 73 74 75 76 77 78 79 80 81 82 83 84 85 86 87 88 89 90 91 92 93 94 95 96 97 98 99 100 101 102 103 104 106 108 109 110 111 112 113 114 115 116 117 118 119 120 121 122 0
1 2 3 0
-1 -3 0
-2 -3 0
-3 4 5 0
3 -5 0
-4 -5 0
-5 6 7 0
5 -7 0
-6 -7 0
-7 8 9 0
7 -9 0
-8 -9 0
9 -10 11 0
-9 -11 0
10 -11 0
-9 10 12 0
9 -12 0
-10 -12 0
11 12 13 0
-11 -13 0
-12 -13 0
14 -15 16 0
-14 -16 0
15 -16 0
15 17 18 0
-15 -18 0
-17 -18 0
-15 -17 19 0
15 -19 0
17 -19 0
18 19 20 0
-18 -20 0
-19 -20 0
20 21 22 0
-20 -22 0
-21 -22 0
-16 -22 23 0
16 -23 0
22 -23 0
19 24 25 0
-19 -25 0
-24 -25 0
-19 -24 26 0
19 -26 0
24 -26 0
25 26 27 0
-25 -27 0
-26 -27 0
27 28 29 0
-27 -29 0
-28 -29 0
-23 -29 30 0
23 -30 0
29 -30 0
26 31 32 0
-26 -32 0
-31 -32 0
-26 -31 33 0
26 -33 0
31 -33 0
32 33 34 0
-32 -34 0
-33 -34 0
34 35 36 0
-34 -36 0
-35 -36 0
-30 -36 37 0
30 -37 0
36 -37 0
33 38 39 0
-33 -39 0
-38 -39 0
-33 -38 40 0
33 -40 0
38 -40 0
39 40 41 0
-39 -41 0
-40 -41 0
41 42 43 0
-41 -43 0
-42 -43 0
-37 -43 44 0
37 -44 0
43 -44 0
40 45 46 0
-40 -46 0
-45 -46 0
-40 -45 47 0
40 -47 0
45 -47 0
46 47 48 0
-46 -48 0
-47 -48 0
48 49 50 0
-48 -50 0
-49 -50 0
44 50 51 0
-44 -51 0
-50 -51 0
-44 -50 52 0
44 -52 0
50 -52 0
51 52 53 0
-51 -53 0
-52 -53 0
13 53 54 0
-13 -54 0
-53 -54 0
12 -55 56 0
-12 -56 0
55 -56 0
-12 55 57 0
12 -57 0
-55 -57 0
56 57 58 0
-56 -58 0
-57 -58 0
47 59 60 0
-47 -60 0
-59 -60 0
-47 -59 61 0
47 -61 0
59 -61 0
60 61 62 0
-60 -62 0
-61 -62 0
62 63 64 0
-62 -64 0
-63 -64 0
52 64 65 0
-52 -65 0
-64 -65 0
-52 -64 66 0
52 -66 0
64 -66 0
65 66 67 0
-65 -67 0
-66 -67 0
58 67 68 0
-58 -68 0
-67 -68 0
54 68 69 0
-54 -69 0
-68 -69 0
5 -6 70 0
-5 -70 0
6 -70 0
70 7 71 0
-70 -71 0
-7 -71 0
30 36 72 0
-30 -72 0
-36 -72 0
72 37 73 0
-72 -73 0
-37 -73 0
-71 -73 74 0
71 -74 0
73 -74 0
3 -4 75 0
-3 -75 0
4 -75 0
75 5 76 0
-75 -76 0
-5 -76 0
23 29 77 0
-23 -77 0
-29 -77 0
77 30 78 0
-77 -78 0
-30 -78 0
-76 -78 79 0
76 -79 0
78 -79 0
74 79 80 0
-74 -80 0
-79 -80 0
-16 1 81 0
16 -81 0
-1 -81 0
81 -2 82 0
-81 -82 0
2 -82 0
-82 22 83 0
82 -83 0
-22 -83 0
83 23 84 0
-83 -84 0
-23 -84 0
-84 3 85 0
84 -85 0
-3 -85 0
29 -4 86 0
-29 -86 0
4 -86 0
-85 86 87 0
85 -87 0
-86 -87 0
-80 87 88 0
80 -88 0
-87 -88 0
71 73 89 0
-71 -89 0
-73 -89 0
88 89 90 0
-88 -90 0
-89 -90 0
7 -8 91 0
-7 -91 0
8 -91 0
91 9 92 0
-91 -92 0
-9 -92 0
37 43 93 0
-37 -93 0
-43 -93 0
93 44 94 0
-93 -94 0
-44 -94 0
92 94 95 0
-92 -95 0
-94 -95 0
-90 95 96 0
90 -96 0
-95 -96 0
-92 -94 97 0
92 -97 0
94 -97 0
96 97 98 0
-96 -98 0
-97 -98 0
-13 -53 99 0
13 -99 0
53 -99 0
-98 99 100 0
98 -100 0
-99 -100 0
-69 100 101 0
69 -101 0
-100 -101 0
-58 -67 102 0
58 -102 0
67 -102 0
101 102 103 0
-101 -103 0
-102 -103 0
-103 66 104 0
103 -104 0
-66 -104 0
-61 105 106 0
61 -106 0
-105 -106 0
106 107 108 0
-106 -108 0
-107 -108 0
61 -105 109 0
-61 -109 0
105 -109 0
-108 109 110 0
108 -110 0
-109 -110 0
-57 111 112 0
57 -112 0
-111 -112 0
57 -111 113 0
-57 -113 0
111 -113 0
112 113 114 0
-112 -114 0
-113 -114 0
110 114 115 0
-110 -115 0
-114 -115 0
-104 115 116 0
104 -116 0
-115 -116 0
103 -66 117 0
-103 -117 0
66 -117 0
-115 -117 118 0
115 -118 0
117 -118 0
116 118 119 0
-116 -119 0
-118 -119 0
-110 117 120 0
110 -120 0
-117 -120 0
-120 -114 121 0
120 -121 0
114 -121 0
-119 121 122 0
119 -122 0
-121 -122 0
122 0
